NAME : fcf4a290e.tspCOMMENT : Generated by ML4CO-Kit
TYPE : TSP
DIMENSION : 50
EDGE_WEIGHT_TYPE : EUC_2D
NODE_COORD_SECTION
1 90242 77621
2 72272 57902
3 20222 62984
4 57768 94373
5 38780 84623
6 24829 52655
7 36796 57874
8 55589 25165
9 90725 24524
10 52544 11525
11 89299 49237
12 68371 62263
13 57168 76472
14 45532 38365
15 11437 6862
16 88094 56592
17 7626 71041
18 22282 4312
19 22643 56888
20 85863 94964
21 39081 83036
22 25723 55828
23 76341 15849
24 62498 39010
25 13086 51037
26 67492 88142
27 96436 52533
28 70649 44909
29 78873 52677
30 31832 35456
31 60791 67064
32 7078 55682
33 80947 39458
34 31771 87003
35 37585 19272
36 34234 82191
37 58959 21083
38 74890 84695
39 51668 80190
40 50820 43234
41 93611 63623
42 39863 7025
43 20805 94755
44 2118 35214
45 67401 9997
46 38045 44089
47 4852 86250
48 62054 54595
49 51411 66313
50 35056 11
EOF
